;; Mutation-Based Equivalence Benchmark
;; Source:     AutomatArk / instance15697.smt2
;; Mutations:  range_shrink_lo
;; Status:     sat
;;
;; Original regex vs mutated regex
;; Equivalence check: unsat ⟺ L(R1) = L(R2)

(set-info :smt-lib-version 2.6)
(set-info :category "mutation")
(set-info :status sat)
(set-logic QF_S)

(declare-const x String)

;; R1: original
;; R2: mutated (range_shrink_lo)
(assert
  (str.in_re x
    (re.union (re.inter (re.++ (re.union (re.++ (str.to_re "0") (re.range "0" "9")) (re.++ (str.to_re "1") (re.range "0" "1"))) (str.to_re ":") (re.union (re.++ (str.to_re "0") (re.range "0" "9")) (re.++ (str.to_re "1") (re.range "0" "9")) (re.++ (str.to_re "2") (re.range "0" "9")) (re.++ (str.to_re "3") (re.range "0" "9")) (re.++ (str.to_re "4") (re.range "0" "9")) (re.++ (str.to_re "5") (re.range "0" "9"))) (str.to_re ":") (re.union (re.++ (str.to_re "0") (re.range "0" "9")) (re.++ (str.to_re "1") (re.range "0" "9")) (re.++ (str.to_re "2") (re.range "0" "9")) (re.++ (str.to_re "3") (re.range "0" "9")) (re.++ (str.to_re "4") (re.range "0" "9")) (re.++ (str.to_re "5") (re.range "0" "9"))) (re.* (re.union (str.to_re " ") (str.to_re "\u{9}") (str.to_re "\u{a}") (str.to_re "\u{c}") (str.to_re "\u{d}"))) (re.union (str.to_re "AM") (str.to_re "PM") (str.to_re "A") (str.to_re "P")) (str.to_re "\u{a}")) (re.comp (re.++ (re.union (re.++ (str.to_re "0") (re.range "0" "9")) (re.++ (str.to_re "1") (re.range "0" "1"))) (str.to_re ":") (re.union (re.++ (str.to_re "0") (re.range "0" "9")) (re.++ (str.to_re "1") (re.range "0" "9")) (re.++ (str.to_re "2") (re.range "0" "9")) (re.++ (str.to_re "3") (re.range "0" "9")) (re.++ (str.to_re "4") (re.range "1" "9")) (re.++ (str.to_re "5") (re.range "0" "9"))) (str.to_re ":") (re.union (re.++ (str.to_re "0") (re.range "0" "9")) (re.++ (str.to_re "1") (re.range "0" "9")) (re.++ (str.to_re "2") (re.range "0" "9")) (re.++ (str.to_re "3") (re.range "0" "9")) (re.++ (str.to_re "4") (re.range "0" "9")) (re.++ (str.to_re "5") (re.range "0" "9"))) (re.* (re.union (str.to_re " ") (str.to_re "\u{9}") (str.to_re "\u{a}") (str.to_re "\u{c}") (str.to_re "\u{d}"))) (re.union (str.to_re "AM") (str.to_re "PM") (str.to_re "A") (str.to_re "P")) (str.to_re "\u{a}")))) (re.inter (re.comp (re.++ (re.union (re.++ (str.to_re "0") (re.range "0" "9")) (re.++ (str.to_re "1") (re.range "0" "1"))) (str.to_re ":") (re.union (re.++ (str.to_re "0") (re.range "0" "9")) (re.++ (str.to_re "1") (re.range "0" "9")) (re.++ (str.to_re "2") (re.range "0" "9")) (re.++ (str.to_re "3") (re.range "0" "9")) (re.++ (str.to_re "4") (re.range "0" "9")) (re.++ (str.to_re "5") (re.range "0" "9"))) (str.to_re ":") (re.union (re.++ (str.to_re "0") (re.range "0" "9")) (re.++ (str.to_re "1") (re.range "0" "9")) (re.++ (str.to_re "2") (re.range "0" "9")) (re.++ (str.to_re "3") (re.range "0" "9")) (re.++ (str.to_re "4") (re.range "0" "9")) (re.++ (str.to_re "5") (re.range "0" "9"))) (re.* (re.union (str.to_re " ") (str.to_re "\u{9}") (str.to_re "\u{a}") (str.to_re "\u{c}") (str.to_re "\u{d}"))) (re.union (str.to_re "AM") (str.to_re "PM") (str.to_re "A") (str.to_re "P")) (str.to_re "\u{a}"))) (re.++ (re.union (re.++ (str.to_re "0") (re.range "0" "9")) (re.++ (str.to_re "1") (re.range "0" "1"))) (str.to_re ":") (re.union (re.++ (str.to_re "0") (re.range "0" "9")) (re.++ (str.to_re "1") (re.range "0" "9")) (re.++ (str.to_re "2") (re.range "0" "9")) (re.++ (str.to_re "3") (re.range "0" "9")) (re.++ (str.to_re "4") (re.range "1" "9")) (re.++ (str.to_re "5") (re.range "0" "9"))) (str.to_re ":") (re.union (re.++ (str.to_re "0") (re.range "0" "9")) (re.++ (str.to_re "1") (re.range "0" "9")) (re.++ (str.to_re "2") (re.range "0" "9")) (re.++ (str.to_re "3") (re.range "0" "9")) (re.++ (str.to_re "4") (re.range "0" "9")) (re.++ (str.to_re "5") (re.range "0" "9"))) (re.* (re.union (str.to_re " ") (str.to_re "\u{9}") (str.to_re "\u{a}") (str.to_re "\u{c}") (str.to_re "\u{d}"))) (re.union (str.to_re "AM") (str.to_re "PM") (str.to_re "A") (str.to_re "P")) (str.to_re "\u{a}"))))))

(check-sat)
(exit)
